[VALIDATOR STDOUT]
Type-checking move
...action passes type checking.
Type-checking pick
...action passes type checking.
Type-checking drop
...action passes type checking.
Checking plan: /home/jfan5/Safety-gen/runs/benchmark/optic/grippers_20260205_142606/grippers/optic_results/grippers-n3-r34-o32-s32001.plan
Plan to validate:

Plan size: 121
1:
(pick robot3 ball8 room1 lgripper3)
 
2:
(pick robot3 ball4 room1 rgripper3)
 
3:
(pick robot1 ball32 room34 lgripper1)
 
4:
(move robot2 room28 room9)
 
5:
(move robot3 room1 room9)
 
6:
(move robot1 room34 room7)
 
7:
(pick robot2 ball25 room9 lgripper2)
 
8:
(pick robot2 ball13 room9 rgripper2)
 
9:
(drop robot3 ball8 room9 lgripper3)
 
10:
(pick robot1 ball9 room7 rgripper1)
 
11:
(move robot2 room9 room29)
 
12:
(move robot3 room9 room32)
 
13:
(move robot1 room7 room25)
 
14:
(drop robot2 ball25 room29 lgripper2)
 
15:
(drop robot3 ball4 room32 rgripper3)
 
16:
(drop robot1 ball32 room25 lgripper1)
 
17:
(move robot2 room29 room9)
 
18:
(move robot1 room25 room22)
 
19:
(move robot3 room32 room20)
 
20:
(pick robot2 ball1 room9 lgripper2)
 
21:
(drop robot1 ball9 room22 rgripper1)
 
22:
(pick robot3 ball3 room20 lgripper3)
 
23:
(move robot2 room9 room31)
 
24:
(move robot3 room20 room34)
 
25:
(move robot1 room22 room8)
 
26:
(drop robot2 ball1 room31 lgripper2)
 
27:
(drop robot3 ball3 room34 lgripper3)
 
28:
(pick robot1 ball16 room8 lgripper1)
 
29:
(move robot2 room31 room24)
 
30:
(move robot1 room8 room2)
 
31:
(drop robot2 ball13 room24 rgripper2)
 
32:
(move robot3 room34 room6)
 
33:
(drop robot1 ball16 room2 lgripper1)
 
34:
(move robot2 room24 room5)
 
35:
(pick robot1 ball5 room2 rgripper1)
 
36:
(pick robot3 ball6 room6 lgripper3)
 
37:
(move robot3 room6 room4)
 
38:
(move robot1 room2 room4)
 
39:
(pick robot2 ball7 room5 lgripper2)
 
40:
(move robot2 room5 room33)
 
41:
(drop robot3 ball6 room4 lgripper3)
 
42:
(pick robot1 ball15 room4 lgripper1)
 
43:
(drop robot2 ball7 room33 lgripper2)
 
44:
(move robot1 room4 room33)
 
45:
(move robot3 room4 room17)
 
46:
(move robot1 room33 room3)
 
47:
(pick robot3 ball21 room17 lgripper3)
 
48:
(move robot2 room33 room29)
 
49:
(drop robot1 ball5 room3 rgripper1)
 
50:
(drop robot1 ball15 room3 lgripper1)
 
51:
(move robot3 room17 room14)
 
52:
(move robot2 room29 room4)
 
53:
(drop robot3 ball21 room14 lgripper3)
 
54:
(pick robot3 ball12 room14 rgripper3)
 
55:
(move robot1 room3 room13)
 
56:
(move robot2 room4 room25)
 
57:
(move robot3 room14 room30)
 
58:
(pick robot1 ball20 room13 lgripper1)
 
59:
(pick robot2 ball29 room25 lgripper2)
 
60:
(drop robot3 ball12 room30 rgripper3)
 
61:
(move robot1 room13 room31)
 
62:
(move robot2 room25 room29)
 
63:
(drop robot1 ball20 room31 lgripper1)
 
64:
(move robot3 room30 room12)
 
65:
(drop robot2 ball29 room29 lgripper2)
 
66:
(pick robot3 ball2 room12 lgripper3)
 
67:
(pick robot3 ball17 room12 rgripper3)
 
68:
(move robot2 room29 room4)
 
69:
(move robot1 room31 room4)
 
70:
(move robot3 room12 room31)
 
71:
(move robot1 room4 room1)
 
72:
(move robot2 room4 room25)
 
73:
(drop robot3 ball2 room31 lgripper3)
 
74:
(pick robot1 ball11 room1 lgripper1)
 
75:
(pick robot2 ball27 room25 lgripper2)
 
76:
(pick robot2 ball26 room25 rgripper2)
 
77:
(move robot3 room31 room15)
 
78:
(move robot1 room1 room23)
 
79:
(move robot2 room25 room33)
 
80:
(drop robot3 ball17 room15 rgripper3)
 
81:
(drop robot1 ball11 room23 lgripper1)
 
82:
(pick robot1 ball22 room23 rgripper1)
 
83:
(drop robot2 ball27 room33 lgripper2)
 
84:
(move robot1 room23 room4)
 
85:
(move robot3 room15 room33)
 
86:
(move robot2 room33 room10)
 
87:
(drop robot1 ball22 room4 rgripper1)
 
88:
(drop robot2 ball26 room10 rgripper2)
 
89:
(move robot3 room33 room26)
 
90:
(move robot2 room10 room33)
 
91:
(move robot1 room4 room23)
 
92:
(move robot3 room26 room25)
 
93:
(pick robot1 ball19 room23 lgripper1)
 
94:
(pick robot1 ball18 room23 rgripper1)
 
95:
(pick robot3 ball23 room25 lgripper3)
 
96:
(pick robot3 ball14 room25 rgripper3)
 
97:
(move robot2 room33 room19)
 
98:
(move robot1 room23 room26)
 
99:
(move robot3 room25 room26)
 
100:
(pick robot2 ball30 room19 lgripper2)
 
101:
(drop robot1 ball18 room26 rgripper1)
 
102:
(drop robot3 ball14 room26 rgripper3)
 
103:
(move robot2 room19 room10)
 
104:
(move robot1 room26 room14)
 
105:
(move robot3 room26 room19)
 
106:
(drop robot2 ball30 room10 lgripper2)
 
107:
(drop robot1 ball19 room14 lgripper1)
 
108:
(drop robot3 ball23 room19 lgripper3)
 
109:
(move robot2 room10 room33)
 
110:
(move robot1 room14 room33)
 
111:
(move robot3 room19 room11)
 
112:
(move robot2 room33 room18)
 
113:
(pick robot3 ball31 room11 lgripper3)
 
114:
(pick robot3 ball28 room11 rgripper3)
 
115:
(pick robot2 ball10 room18 lgripper2)
 
116:
(move robot3 room11 room19)
 
117:
(move robot2 room18 room33)
 
118:
(drop robot3 ball28 room19 rgripper3)
 
119:
(drop robot2 ball10 room33 lgripper2)
 
120:
(move robot3 room19 room18)
 
121:
(drop robot3 ball31 room18 lgripper3)
 

Plan Validation details
-----------------------

Checking next happening (time 1)
Deleting (at ball8 room1)
Deleting (free robot3 lgripper3)
Adding (carry robot3 ball8 lgripper3)

Checking next happening (time 2)
Deleting (at ball4 room1)
Deleting (free robot3 rgripper3)
Adding (carry robot3 ball4 rgripper3)

Checking next happening (time 3)
Deleting (at ball32 room34)
Deleting (free robot1 lgripper1)
Adding (carry robot1 ball32 lgripper1)

Checking next happening (time 4)
Deleting (at-robby robot2 room28)
Adding (at-robby robot2 room9)

Checking next happening (time 5)
Deleting (at-robby robot3 room1)
Adding (at-robby robot3 room9)

Checking next happening (time 6)
Deleting (at-robby robot1 room34)
Adding (at-robby robot1 room7)

Checking next happening (time 7)
Deleting (at ball25 room9)
Deleting (free robot2 lgripper2)
Adding (carry robot2 ball25 lgripper2)

Checking next happening (time 8)
Deleting (at ball13 room9)
Deleting (free robot2 rgripper2)
Adding (carry robot2 ball13 rgripper2)

Checking next happening (time 9)
Deleting (carry robot3 ball8 lgripper3)
Adding (at ball8 room9)
Adding (free robot3 lgripper3)

Checking next happening (time 10)
Deleting (at ball9 room7)
Deleting (free robot1 rgripper1)
Adding (carry robot1 ball9 rgripper1)

Checking next happening (time 11)
Deleting (at-robby robot2 room9)
Adding (at-robby robot2 room29)

Checking next happening (time 12)
Deleting (at-robby robot3 room9)
Adding (at-robby robot3 room32)

Checking next happening (time 13)
Deleting (at-robby robot1 room7)
Adding (at-robby robot1 room25)

Checking next happening (time 14)
Deleting (carry robot2 ball25 lgripper2)
Adding (at ball25 room29)
Adding (free robot2 lgripper2)

Checking next happening (time 15)
Deleting (carry robot3 ball4 rgripper3)
Adding (at ball4 room32)
Adding (free robot3 rgripper3)

Checking next happening (time 16)
Deleting (carry robot1 ball32 lgripper1)
Adding (at ball32 room25)
Adding (free robot1 lgripper1)

Checking next happening (time 17)
Deleting (at-robby robot2 room29)
Adding (at-robby robot2 room9)

Checking next happening (time 18)
Deleting (at-robby robot1 room25)
Adding (at-robby robot1 room22)

Checking next happening (time 19)
Deleting (at-robby robot3 room32)
Adding (at-robby robot3 room20)

Checking next happening (time 20)
Deleting (at ball1 room9)
Deleting (free robot2 lgripper2)
Adding (carry robot2 ball1 lgripper2)

Checking next happening (time 21)
Deleting (carry robot1 ball9 rgripper1)
Adding (at ball9 room22)
Adding (free robot1 rgripper1)

Checking next happening (time 22)
Deleting (at ball3 room20)
Deleting (free robot3 lgripper3)
Adding (carry robot3 ball3 lgripper3)

Checking next happening (time 23)
Deleting (at-robby robot2 room9)
Adding (at-robby robot2 room31)

Checking next happening (time 24)
Deleting (at-robby robot3 room20)
Adding (at-robby robot3 room34)

Checking next happening (time 25)
Deleting (at-robby robot1 room22)
Adding (at-robby robot1 room8)

Checking next happening (time 26)
Deleting (carry robot2 ball1 lgripper2)
Adding (at ball1 room31)
Adding (free robot2 lgripper2)

Checking next happening (time 27)
Deleting (carry robot3 ball3 lgripper3)
Adding (at ball3 room34)
Adding (free robot3 lgripper3)

Checking next happening (time 28)
Deleting (at ball16 room8)
Deleting (free robot1 lgripper1)
Adding (carry robot1 ball16 lgripper1)

Checking next happening (time 29)
Deleting (at-robby robot2 room31)
Adding (at-robby robot2 room24)

Checking next happening (time 30)
Deleting (at-robby robot1 room8)
Adding (at-robby robot1 room2)

Checking next happening (time 31)
Deleting (carry robot2 ball13 rgripper2)
Adding (at ball13 room24)
Adding (free robot2 rgripper2)

Checking next happening (time 32)
Deleting (at-robby robot3 room34)
Adding (at-robby robot3 room6)

Checking next happening (time 33)
Deleting (carry robot1 ball16 lgripper1)
Adding (at ball16 room2)
Adding (free robot1 lgripper1)

Checking next happening (time 34)
Deleting (at-robby robot2 room24)
Adding (at-robby robot2 room5)

Checking next happening (time 35)
Deleting (at ball5 room2)
Deleting (free robot1 rgripper1)
Adding (carry robot1 ball5 rgripper1)

Checking next happening (time 36)
Deleting (at ball6 room6)
Deleting (free robot3 lgripper3)
Adding (carry robot3 ball6 lgripper3)

Checking next happening (time 37)
Deleting (at-robby robot3 room6)
Adding (at-robby robot3 room4)

Checking next happening (time 38)
Deleting (at-robby robot1 room2)
Adding (at-robby robot1 room4)

Checking next happening (time 39)
Deleting (at ball7 room5)
Deleting (free robot2 lgripper2)
Adding (carry robot2 ball7 lgripper2)

Checking next happening (time 40)
Deleting (at-robby robot2 room5)
Adding (at-robby robot2 room33)

Checking next happening (time 41)
Deleting (carry robot3 ball6 lgripper3)
Adding (at ball6 room4)
Adding (free robot3 lgripper3)

Checking next happening (time 42)
Deleting (at ball15 room4)
Deleting (free robot1 lgripper1)
Adding (carry robot1 ball15 lgripper1)

Checking next happening (time 43)
Deleting (carry robot2 ball7 lgripper2)
Adding (at ball7 room33)
Adding (free robot2 lgripper2)

Checking next happening (time 44)
Deleting (at-robby robot1 room4)
Adding (at-robby robot1 room33)

Checking next happening (time 45)
Deleting (at-robby robot3 room4)
Adding (at-robby robot3 room17)

Checking next happening (time 46)
Deleting (at-robby robot1 room33)
Adding (at-robby robot1 room3)

Checking next happening (time 47)
Deleting (at ball21 room17)
Deleting (free robot3 lgripper3)
Adding (carry robot3 ball21 lgripper3)

Checking next happening (time 48)
Deleting (at-robby robot2 room33)
Adding (at-robby robot2 room29)

Checking next happening (time 49)
Deleting (carry robot1 ball5 rgripper1)
Adding (at ball5 room3)
Adding (free robot1 rgripper1)

Checking next happening (time 50)
Deleting (carry robot1 ball15 lgripper1)
Adding (at ball15 room3)
Adding (free robot1 lgripper1)

Checking next happening (time 51)
Deleting (at-robby robot3 room17)
Adding (at-robby robot3 room14)

Checking next happening (time 52)
Deleting (at-robby robot2 room29)
Adding (at-robby robot2 room4)

Checking next happening (time 53)
Deleting (carry robot3 ball21 lgripper3)
Adding (at ball21 room14)
Adding (free robot3 lgripper3)

Checking next happening (time 54)
Deleting (at ball12 room14)
Deleting (free robot3 rgripper3)
Adding (carry robot3 ball12 rgripper3)

Checking next happening (time 55)
Deleting (at-robby robot1 room3)
Adding (at-robby robot1 room13)

Checking next happening (time 56)
Deleting (at-robby robot2 room4)
Adding (at-robby robot2 room25)

Checking next happening (time 57)
Deleting (at-robby robot3 room14)
Adding (at-robby robot3 room30)

Checking next happening (time 58)
Deleting (at ball20 room13)
Deleting (free robot1 lgripper1)
Adding (carry robot1 ball20 lgripper1)

Checking next happening (time 59)
Deleting (at ball29 room25)
Deleting (free robot2 lgripper2)
Adding (carry robot2 ball29 lgripper2)

Checking next happening (time 60)
Deleting (carry robot3 ball12 rgripper3)
Adding (at ball12 room30)
Adding (free robot3 rgripper3)

Checking next happening (time 61)
Deleting (at-robby robot1 room13)
Adding (at-robby robot1 room31)

Checking next happening (time 62)
Deleting (at-robby robot2 room25)
Adding (at-robby robot2 room29)

Checking next happening (time 63)
Deleting (carry robot1 ball20 lgripper1)
Adding (at ball20 room31)
Adding (free robot1 lgripper1)

Checking next happening (time 64)
Deleting (at-robby robot3 room30)
Adding (at-robby robot3 room12)

Checking next happening (time 65)
Deleting (carry robot2 ball29 lgripper2)
Adding (at ball29 room29)
Adding (free robot2 lgripper2)

Checking next happening (time 66)
Deleting (at ball2 room12)
Deleting (free robot3 lgripper3)
Adding (carry robot3 ball2 lgripper3)

Checking next happening (time 67)
Deleting (at ball17 room12)
Deleting (free robot3 rgripper3)
Adding (carry robot3 ball17 rgripper3)

Checking next happening (time 68)
Deleting (at-robby robot2 room29)
Adding (at-robby robot2 room4)

Checking next happening (time 69)
Deleting (at-robby robot1 room31)
Adding (at-robby robot1 room4)

Checking next happening (time 70)
Deleting (at-robby robot3 room12)
Adding (at-robby robot3 room31)

Checking next happening (time 71)
Deleting (at-robby robot1 room4)
Adding (at-robby robot1 room1)

Checking next happening (time 72)
Deleting (at-robby robot2 room4)
Adding (at-robby robot2 room25)

Checking next happening (time 73)
Deleting (carry robot3 ball2 lgripper3)
Adding (at ball2 room31)
Adding (free robot3 lgripper3)

Checking next happening (time 74)
Deleting (at ball11 room1)
Deleting (free robot1 lgripper1)
Adding (carry robot1 ball11 lgripper1)

Checking next happening (time 75)
Deleting (at ball27 room25)
Deleting (free robot2 lgripper2)
Adding (carry robot2 ball27 lgripper2)

Checking next happening (time 76)
Deleting (at ball26 room25)
Deleting (free robot2 rgripper2)
Adding (carry robot2 ball26 rgripper2)

Checking next happening (time 77)
Deleting (at-robby robot3 room31)
Adding (at-robby robot3 room15)

Checking next happening (time 78)
Deleting (at-robby robot1 room1)
Adding (at-robby robot1 room23)

Checking next happening (time 79)
Deleting (at-robby robot2 room25)
Adding (at-robby robot2 room33)

Checking next happening (time 80)
Deleting (carry robot3 ball17 rgripper3)
Adding (at ball17 room15)
Adding (free robot3 rgripper3)

Checking next happening (time 81)
Deleting (carry robot1 ball11 lgripper1)
Adding (at ball11 room23)
Adding (free robot1 lgripper1)

Checking next happening (time 82)
Deleting (at ball22 room23)
Deleting (free robot1 rgripper1)
Adding (carry robot1 ball22 rgripper1)

Checking next happening (time 83)
Deleting (carry robot2 ball27 lgripper2)
Adding (at ball27 room33)
Adding (free robot2 lgripper2)

Checking next happening (time 84)
Deleting (at-robby robot1 room23)
Adding (at-robby robot1 room4)

Checking next happening (time 85)
Deleting (at-robby robot3 room15)
Adding (at-robby robot3 room33)

Checking next happening (time 86)
Deleting (at-robby robot2 room33)
Adding (at-robby robot2 room10)

Checking next happening (time 87)
Deleting (carry robot1 ball22 rgripper1)
Adding (at ball22 room4)
Adding (free robot1 rgripper1)

Checking next happening (time 88)
Deleting (carry robot2 ball26 rgripper2)
Adding (at ball26 room10)
Adding (free robot2 rgripper2)

Checking next happening (time 89)
Deleting (at-robby robot3 room33)
Adding (at-robby robot3 room26)

Checking next happening (time 90)
Deleting (at-robby robot2 room10)
Adding (at-robby robot2 room33)

Checking next happening (time 91)
Deleting (at-robby robot1 room4)
Adding (at-robby robot1 room23)

Checking next happening (time 92)
Deleting (at-robby robot3 room26)
Adding (at-robby robot3 room25)

Checking next happening (time 93)
Deleting (at ball19 room23)
Deleting (free robot1 lgripper1)
Adding (carry robot1 ball19 lgripper1)

Checking next happening (time 94)
Deleting (at ball18 room23)
Deleting (free robot1 rgripper1)
Adding (carry robot1 ball18 rgripper1)

Checking next happening (time 95)
Deleting (at ball23 room25)
Deleting (free robot3 lgripper3)
Adding (carry robot3 ball23 lgripper3)

Checking next happening (time 96)
Deleting (at ball14 room25)
Deleting (free robot3 rgripper3)
Adding (carry robot3 ball14 rgripper3)

Checking next happening (time 97)
Deleting (at-robby robot2 room33)
Adding (at-robby robot2 room19)

Checking next happening (time 98)
Deleting (at-robby robot1 room23)
Adding (at-robby robot1 room26)

Checking next happening (time 99)
Deleting (at-robby robot3 room25)
Adding (at-robby robot3 room26)

Checking next happening (time 100)
Deleting (at ball30 room19)
Deleting (free robot2 lgripper2)
Adding (carry robot2 ball30 lgripper2)

Checking next happening (time 101)
Deleting (carry robot1 ball18 rgripper1)
Adding (at ball18 room26)
Adding (free robot1 rgripper1)

Checking next happening (time 102)
Deleting (carry robot3 ball14 rgripper3)
Adding (at ball14 room26)
Adding (free robot3 rgripper3)

Checking next happening (time 103)
Deleting (at-robby robot2 room19)
Adding (at-robby robot2 room10)

Checking next happening (time 104)
Deleting (at-robby robot1 room26)
Adding (at-robby robot1 room14)

Checking next happening (time 105)
Deleting (at-robby robot3 room26)
Adding (at-robby robot3 room19)

Checking next happening (time 106)
Deleting (carry robot2 ball30 lgripper2)
Adding (at ball30 room10)
Adding (free robot2 lgripper2)

Checking next happening (time 107)
Deleting (carry robot1 ball19 lgripper1)
Adding (at ball19 room14)
Adding (free robot1 lgripper1)

Checking next happening (time 108)
Deleting (carry robot3 ball23 lgripper3)
Adding (at ball23 room19)
Adding (free robot3 lgripper3)

Checking next happening (time 109)
Deleting (at-robby robot2 room10)
Adding (at-robby robot2 room33)

Checking next happening (time 110)
Deleting (at-robby robot1 room14)
Adding (at-robby robot1 room33)

Checking next happening (time 111)
Deleting (at-robby robot3 room19)
Adding (at-robby robot3 room11)

Checking next happening (time 112)
Deleting (at-robby robot2 room33)
Adding (at-robby robot2 room18)

Checking next happening (time 113)
Deleting (at ball31 room11)
Deleting (free robot3 lgripper3)
Adding (carry robot3 ball31 lgripper3)

Checking next happening (time 114)
Deleting (at ball28 room11)
Deleting (free robot3 rgripper3)
Adding (carry robot3 ball28 rgripper3)

Checking next happening (time 115)
Deleting (at ball10 room18)
Deleting (free robot2 lgripper2)
Adding (carry robot2 ball10 lgripper2)

Checking next happening (time 116)
Deleting (at-robby robot3 room11)
Adding (at-robby robot3 room19)

Checking next happening (time 117)
Deleting (at-robby robot2 room18)
Adding (at-robby robot2 room33)

Checking next happening (time 118)
Deleting (carry robot3 ball28 rgripper3)
Adding (at ball28 room19)
Adding (free robot3 rgripper3)

Checking next happening (time 119)
Deleting (carry robot2 ball10 lgripper2)
Adding (at ball10 room33)
Adding (free robot2 lgripper2)

Checking next happening (time 120)
Deleting (at-robby robot3 room19)
Adding (at-robby robot3 room18)

Checking next happening (time 121)
Deleting (carry robot3 ball31 lgripper3)
Adding (at ball31 room18)
Adding (free robot3 lgripper3)
Plan executed successfully - checking goal
Plan valid
Final value: 121 

Successful plans:
Value: 121
 /home/jfan5/Safety-gen/runs/benchmark/optic/grippers_20260205_142606/grippers/optic_results/grippers-n3-r34-o32-s32001.plan 121
